(set-info :smt-lib-version 2.6)
(set-logic QF_SLIA)
(set-info :source |
Generated by: Joel Day, Thorsten Ehlers, Mitja Kulczynski, Federico Mora, Florin Manea, Dirk Nowotka, Danny Poulsen, Zhengyang Lu
Application: Test WOORPJE
Target solver: WOORPJE
Publications: Day, J. D., Ehlers, T., Kulczynski, M., Manea, F., Nowotka, D., & Poulsen, D. B. (2019). On solving word equations using SAT. In RP 2019
Description: Enriches a system of 30 word equations by suitable linear constraints
|)
(set-info :license "https://creativecommons.org/licenses/by/4.0/")
(set-info :category "random")
(set-info :status unknown)

(declare-fun C () String)
(declare-fun G () String)
(declare-fun E () String)
(assert (= (str.++  "eaa" G "bfaacaebbccceceeedc")  (str.++  "eaacffbebcba" C "bbccceceeedc") ))
(assert (= (str.++  "cdaaebabbccfecafecccdbedbddcefdcfcddabdc" "")  (str.++  "cda" E "abbccfecafecccdbedbddcefdcfcddabdc") ))
(assert (= (str.++  "fecdecafcaffd" E "ffcebacfcfadcefafefccebd")  (str.++  "fecdecafcaffdaebffcebacfcfadcefafefccebd" "") ))
(assert (<=(* (str.len C) 14) 308))
(assert (>=(* (str.len E) 6) 12))
(assert (<=(* (str.len E) 5) 60))
(assert (>=(* (str.len G) 17) 272))
(assert (<=(* (str.len G) 14) 1274))
(check-sat)

(exit)
